Traveling Salesman Problem/TSP_generados/Aleatorio1620390943_10.tsp
NAME: Aleatorio1620390943_10.tsp
COMMENT: Randomly generated scenario
TYPE: TSP
DIMENSION: 10
EDGE_WEIGHT_TYPE: ATT
NODE_COORD_SECTION
1 28.83 9.63
2 6.4 4.83
3 36.63 9.48
4 45.07 5.19
5 25.01 32.61
6 13.65 23.69
7 15.21 49.63
8 47.85 17.84
9 45.99 0.15
10 9.12 15.54
