Traveling Salesman Problem/TSP_generados/Aleatorio1620390943_10.opt.tour
NAME: Aleatorio1620390943_10.opt.tour
COMMENT: Optimal solution for Aleatorio1620390943_10 (155.2308633186517)
TYPE: TOUR
DIMENSION: 10
TOUR_SECTION
1 2 10 6 7 5 8 4 9 3
-1
EOF
